c Reduced graph for p32_0 generated by Cyril Grelier
p edge 51 221
e 1 2
e 1 3
e 1 4
e 1 6
e 1 7
e 1 8
e 1 9
e 1 12
e 1 13
e 1 14
e 1 15
e 1 23
e 1 27
e 1 40
e 2 4
e 2 5
e 2 8
e 2 14
e 2 15
e 2 16
e 2 19
e 2 20
e 2 23
e 2 34
e 2 35
e 2 40
e 3 5
e 3 6
e 3 7
e 3 9
e 3 10
e 3 11
e 3 12
e 3 13
e 3 17
e 3 26
e 3 27
e 3 42
e 4 8
e 4 10
e 4 14
e 4 15
e 4 21
e 4 23
e 4 24
e 4 31
e 4 40
e 4 43
e 5 10
e 5 11
e 5 16
e 5 17
e 5 19
e 5 20
e 5 26
e 5 34
e 5 35
e 5 42
e 6 7
e 6 9
e 6 12
e 6 13
e 6 18
e 6 27
e 6 28
e 6 29
e 6 48
e 7 9
e 7 12
e 7 13
e 7 21
e 7 22
e 7 27
e 7 33
e 7 39
e 8 14
e 8 15
e 8 17
e 8 23
e 8 29
e 8 33
e 8 37
e 8 40
e 9 12
e 9 13
e 9 16
e 9 24
e 9 25
e 9 27
e 9 41
e 10 11
e 10 17
e 10 21
e 10 24
e 10 26
e 10 31
e 10 42
e 10 43
e 11 17
e 11 18
e 11 22
e 11 25
e 11 26
e 11 30
e 11 32
e 11 42
e 12 13
e 12 27
e 12 30
e 12 36
e 12 37
e 13 19
e 13 27
e 13 31
e 13 38
e 14 15
e 14 23
e 14 39
e 14 40
e 14 41
e 14 44
e 15 23
e 15 26
e 15 40
e 15 45
e 15 49
e 16 19
e 16 20
e 16 24
e 16 25
e 16 34
e 16 35
e 16 41
e 17 26
e 17 29
e 17 33
e 17 37
e 17 42
e 18 22
e 18 25
e 18 28
e 18 29
e 18 30
e 18 32
e 18 48
e 19 20
e 19 31
e 19 34
e 19 35
e 19 38
e 20 32
e 20 34
e 20 35
e 20 44
e 20 45
e 21 22
e 21 24
e 21 31
e 21 33
e 21 39
e 21 43
e 22 25
e 22 30
e 22 32
e 22 33
e 22 39
e 23 40
e 23 50
e 23 51
e 24 25
e 24 31
e 24 41
e 24 43
e 25 30
e 25 32
e 25 41
e 26 42
e 26 45
e 26 49
e 27 43
e 27 47
e 28 29
e 28 36
e 28 38
e 28 46
e 28 47
e 28 48
e 29 33
e 29 37
e 29 48
e 30 32
e 30 36
e 30 37
e 31 38
e 31 43
e 32 44
e 32 45
e 33 37
e 33 39
e 34 35
e 34 46
e 34 50
e 35 49
e 35 51
e 36 37
e 36 38
e 36 46
e 36 47
e 38 46
e 38 47
e 39 41
e 39 44
e 41 44
e 42 48
e 43 47
e 44 45
e 45 49
e 46 47
e 46 50
e 49 51
e 50 51
